
Gurobi 6.5.2 (linux64) logging started Mon Aug 29 10:57:54 2016

Optimize a model with 101 rows, 908 columns and 1817 nonzeros
Coefficient statistics:
  Matrix range    [1e+00, 2e+00]
  Objective range [1e+00, 1e+02]
  Bounds range    [1e+00, 1e+00]
  RHS range       [1e+00, 1e+00]
Found heuristic solution: objective 2537
Presolve removed 51 rows and 50 columns
Presolve time: 0.00s
Presolved: 50 rows, 858 columns, 1716 nonzeros
Variable types: 0 continuous, 858 integer (858 binary)

Root relaxation: objective 6.555000e+02, 78 iterations, 0.00 seconds

    Nodes    |    Current Node    |     Objective Bounds      |     Work
 Expl Unexpl |  Obj  Depth IntInf | Incumbent    BestBd   Gap | It/Node Time

     0     0  655.50000    0    6 2537.00000  655.50000  74.2%     -    0s
H    0     0                     685.0000000  655.50000  4.31%     -    0s
     0     0  656.00000    0    8  685.00000  656.00000  4.23%     -    0s
     0     0  656.00000    0    6  685.00000  656.00000  4.23%     -    0s
H    0     0                     679.0000000  656.00000  3.39%     -    0s
H    0     0                     674.0000000  656.00000  2.67%     -    0s
H    0     0                     665.0000000  656.00000  1.35%     -    0s
     0     0  657.00000    0    6  665.00000  657.00000  1.20%     -    0s
     0     0  657.00000    0    6  665.00000  657.00000  1.20%     -    0s
*    0     0               0     658.0000000  658.00000  0.00%     -    0s

Cutting planes:
  Gomory: 4
  Zero half: 2

Explored 0 nodes (253 simplex iterations) in 0.02 seconds
Thread count was 8 (of 8 available processors)

Optimal solution found (tolerance 1.00e-04)
Best objective 6.580000000000e+02, best bound 6.580000000000e+02, gap 0.0%
